70
1 0 3
2 0 1
2 1 4
3 0 2
3 1 1
3 2 1
4 0 4
4 1 4
4 2 4
4 3 4
5 0 2
5 1 5
5 2 4
5 3 4
5 4 4
6 0 1
6 1 2
6 2 4
6 3 2
6 4 5
6 5 4
7 0 2
7 1 4
7 2 5
7 3 3
7 4 4
7 5 5
7 6 5
8 0 5
8 1 2
8 2 1
8 3 1
8 4 1
8 5 1
8 6 2
8 7 2
9 0 3
9 1 4
9 2 3
9 3 3
9 4 4
9 5 3
9 6 3
9 7 2
9 8 1
10 0 4
10 1 1
10 2 5
10 3 4
10 4 1
10 5 1
10 6 5
10 7 1
10 8 2
10 9 5
11 0 3
11 1 1
11 2 4
11 3 2
11 4 1
11 5 3
11 6 4
11 7 4
11 8 3
11 9 2
11 10 5
12 0 4
12 1 1
12 2 1
12 3 3
12 4 2
12 5 2
12 6 5
12 7 4
12 8 5
12 9 5
12 10 4
12 11 2
13 0 3
13 1 3
13 2 3
13 3 2
13 4 3
13 5 1
13 6 5
13 7 2
13 8 1
13 9 3
13 10 1
13 11 1
13 12 2
14 0 5
14 1 3
14 2 1
14 3 3
14 4 1
14 5 2
14 6 1
14 7 3
14 8 5
14 9 4
14 10 4
14 11 2
14 12 5
14 13 2
15 0 3
15 1 3
15 2 5
15 3 1
15 4 2
15 5 5
15 6 1
15 7 3
15 8 3
15 9 2
15 10 5
15 11 1
15 12 4
15 13 3
15 14 3
16 0 4
16 1 2
16 2 3
16 3 1
16 4 3
16 5 2
16 6 2
16 7 2
16 8 1
16 9 5
16 10 3
16 11 4
16 12 3
16 13 2
16 14 4
16 15 3
17 0 3
17 1 5
17 2 2
17 3 1
17 4 5
17 5 3
17 6 3
17 7 5
17 8 2
17 9 1
17 10 4
17 11 4
17 12 4
17 13 5
17 14 2
17 15 3
17 16 3
18 0 2
18 1 3
18 2 1
18 3 1
18 4 2
18 5 1
18 6 3
18 7 4
18 8 4
18 9 4
18 10 1
18 11 1
18 12 4
18 13 5
18 14 1
18 15 4
18 16 5
18 17 2
19 0 3
19 1 3
19 2 4
19 3 4
19 4 4
19 5 2
19 6 5
19 7 5
19 8 1
19 9 2
19 10 3
19 11 1
19 12 4
19 13 2
19 14 2
19 15 5
19 16 4
19 17 1
19 18 2
20 0 3
20 1 5
20 2 5
20 3 3
20 4 3
20 5 3
20 6 3
20 7 4
20 8 4
20 9 5
20 10 2
20 11 5
20 12 5
20 13 3
20 14 1
20 15 5
20 16 3
20 17 1
20 18 3
20 19 3
21 0 2
21 1 4
21 2 2
21 3 4
21 4 1
21 5 4
21 6 1
21 7 2
21 8 4
21 9 5
21 10 4
21 11 5
21 12 4
21 13 1
21 14 1
21 15 4
21 16 2
21 17 5
21 18 5
21 19 4
21 20 5
22 0 2
22 1 1
22 2 3
22 3 1
22 4 1
22 5 5
22 6 2
22 7 1
22 8 2
22 9 3
22 10 4
22 11 3
22 12 5
22 13 4
22 14 1
22 15 3
22 16 2
22 17 4
22 18 1
22 19 2
22 20 3
22 21 2
23 0 4
23 1 3
23 2 2
23 3 1
23 4 3
23 5 5
23 6 4
23 7 1
23 8 2
23 9 1
23 10 2
23 11 1
23 12 3
23 13 4
23 14 4
23 15 3
23 16 4
23 17 2
23 18 1
23 19 4
23 20 5
23 21 3
23 22 1
24 0 3
24 1 1
24 2 5
24 3 2
24 4 3
24 5 2
24 6 5
24 7 1
24 8 3
24 9 5
24 10 4
24 11 3
24 12 3
24 13 5
24 14 4
24 15 3
24 16 1
24 17 2
24 18 3
24 19 3
24 20 2
24 21 2
24 22 5
24 23 4
25 0 5
25 1 3
25 2 2
25 3 4
25 4 2
25 5 4
25 6 3
25 7 4
25 8 3
25 9 1
25 10 4
25 11 3
25 12 1
25 13 3
25 14 2
25 15 3
25 16 3
25 17 5
25 18 2
25 19 2
25 20 5
25 21 1
25 22 3
25 23 4
25 24 4
26 0 1
26 1 3
26 2 5
26 3 4
26 4 2
26 5 4
26 6 4
26 7 1
26 8 2
26 9 1
26 10 1
26 11 3
26 12 5
26 13 3
26 14 2
26 15 1
26 16 5
26 17 3
26 18 4
26 19 2
26 20 1
26 21 4
26 22 3
26 23 4
26 24 4
26 25 5
27 0 5
27 1 3
27 2 2
27 3 4
27 4 4
27 5 2
27 6 4
27 7 3
27 8 1
27 9 3
27 10 2
27 11 1
27 12 5
27 13 5
27 14 5
27 15 4
27 16 4
27 17 2
27 18 3
27 19 3
27 20 2
27 21 4
27 22 5
27 23 3
27 24 1
27 25 4
27 26 1
28 0 2
28 1 4
28 2 1
28 3 3
28 4 1
28 5 1
28 6 2
28 7 1
28 8 4
28 9 2
28 10 1
28 11 4
28 12 3
28 13 4
28 14 4
28 15 3
28 16 1
28 17 3
28 18 4
28 19 4
28 20 1
28 21 5
28 22 1
28 23 1
28 24 1
28 25 4
28 26 1
28 27 4
29 0 4
29 1 4
29 2 2
29 3 3
29 4 2
29 5 1
29 6 1
29 7 3
29 8 5
29 9 5
29 10 3
29 11 4
29 12 5
29 13 3
29 14 4
29 15 4
29 16 2
29 17 1
29 18 1
29 19 3
29 20 4
29 21 2
29 22 5
29 23 2
29 24 2
29 25 5
29 26 1
29 27 3
29 28 3
30 0 4
30 1 1
30 2 5
30 3 2
30 4 5
30 5 2
30 6 3
30 7 1
30 8 3
30 9 4
30 10 3
30 11 1
30 12 3
30 13 4
30 14 4
30 15 2
30 16 3
30 17 1
30 18 4
30 19 3
30 20 1
30 21 4
30 22 5
30 23 3
30 24 4
30 25 1
30 26 5
30 27 5
30 28 3
30 29 4
31 0 5
31 1 2
31 2 4
31 3 5
31 4 2
31 5 2
31 6 2
31 7 1
31 8 1
31 9 2
31 10 2
31 11 3
31 12 5
31 13 4
31 14 3
31 15 5
31 16 3
31 17 1
31 18 2
31 19 3
31 20 3
31 21 5
31 22 3
31 23 4
31 24 5
31 25 4
31 26 2
31 27 4
31 28 5
31 29 4
31 30 5
32 0 4
32 1 4
32 2 3
32 3 3
32 4 2
32 5 4
32 6 4
32 7 4
32 8 4
32 9 5
32 10 2
32 11 4
32 12 2
32 13 1
32 14 2
32 15 4
32 16 1
32 17 1
32 18 1
32 19 5
32 20 1
32 21 3
32 22 2
32 23 5
32 24 4
32 25 5
32 26 4
32 27 1
32 28 2
32 29 4
32 30 1
32 31 5
33 0 1
33 1 3
33 2 4
33 3 5
33 4 2
33 5 5
33 6 3
33 7 3
33 8 5
33 9 1
33 10 3
33 11 4
33 12 4
33 13 2
33 14 1
33 15 3
33 16 1
33 17 5
33 18 4
33 19 5
33 20 2
33 21 2
33 22 1
33 23 4
33 24 5
33 25 1
33 26 4
33 27 1
33 28 2
33 29 4
33 30 3
33 31 2
33 32 3
34 0 4
34 1 4
34 2 4
34 3 3
34 4 5
34 5 4
34 6 2
34 7 1
34 8 3
34 9 1
34 10 3
34 11 1
34 12 5
34 13 3
34 14 4
34 15 1
34 16 4
34 17 2
34 18 1
34 19 1
34 20 5
34 21 3
34 22 3
34 23 1
34 24 1
34 25 3
34 26 2
34 27 2
34 28 1
34 29 4
34 30 4
34 31 5
34 32 1
34 33 1
35 0 5
35 1 5
35 2 3
35 3 5
35 4 3
35 5 1
35 6 4
35 7 5
35 8 5
35 9 2
35 10 5
35 11 1
35 12 2
35 13 5
35 14 1
35 15 5
35 16 1
35 17 2
35 18 4
35 19 3
35 20 5
35 21 1
35 22 1
35 23 4
35 24 2
35 25 5
35 26 2
35 27 5
35 28 2
35 29 4
35 30 5
35 31 4
35 32 4
35 33 5
35 34 5
36 0 4
36 1 1
36 2 4
36 3 2
36 4 2
36 5 3
36 6 3
36 7 5
36 8 1
36 9 3
36 10 5
36 11 5
36 12 3
36 13 2
36 14 3
36 15 1
36 16 5
36 17 5
36 18 4
36 19 2
36 20 2
36 21 3
36 22 2
36 23 1
36 24 3
36 25 5
36 26 2
36 27 1
36 28 3
36 29 3
36 30 2
36 31 3
36 32 2
36 33 4
36 34 2
36 35 5
37 0 2
37 1 1
37 2 4
37 3 1
37 4 3
37 5 1
37 6 4
37 7 5
37 8 3
37 9 5
37 10 4
37 11 3
37 12 3
37 13 5
37 14 5
37 15 2
37 16 5
37 17 5
37 18 1
37 19 3
37 20 3
37 21 5
37 22 3
37 23 4
37 24 5
37 25 2
37 26 2
37 27 2
37 28 3
37 29 4
37 30 1
37 31 4
37 32 3
37 33 3
37 34 2
37 35 5
37 36 4
38 0 3
38 1 5
38 2 3
38 3 2
38 4 5
38 5 3
38 6 1
38 7 3
38 8 5
38 9 2
38 10 5
38 11 3
38 12 5
38 13 5
38 14 1
38 15 2
38 16 1
38 17 5
38 18 5
38 19 2
38 20 3
38 21 4
38 22 5
38 23 4
38 24 1
38 25 1
38 26 3
38 27 2
38 28 3
38 29 3
38 30 5
38 31 1
38 32 5
38 33 4
38 34 3
38 35 3
38 36 3
38 37 5
39 0 4
39 1 5
39 2 1
39 3 2
39 4 1
39 5 1
39 6 3
39 7 5
39 8 5
39 9 1
39 10 1
39 11 5
39 12 2
39 13 1
39 14 5
39 15 1
39 16 3
39 17 4
39 18 3
39 19 1
39 20 5
39 21 4
39 22 2
39 23 3
39 24 2
39 25 3
39 26 4
39 27 1
39 28 5
39 29 4
39 30 5
39 31 2
39 32 5
39 33 2
39 34 4
39 35 2
39 36 1
39 37 2
39 38 2
40 0 1
40 1 4
40 2 2
40 3 5
40 4 2
40 5 2
40 6 4
40 7 1
40 8 4
40 9 1
40 10 2
40 11 4
40 12 5
40 13 5
40 14 4
40 15 3
40 16 4
40 17 5
40 18 3
40 19 5
40 20 2
40 21 5
40 22 1
40 23 3
40 24 3
40 25 3
40 26 5
40 27 4
40 28 5
40 29 5
40 30 4
40 31 2
40 32 1
40 33 4
40 34 4
40 35 2
40 36 2
40 37 3
40 38 2
40 39 1
41 0 1
41 1 2
41 2 5
41 3 4
41 4 5
41 5 4
41 6 4
41 7 2
41 8 1
41 9 2
41 10 4
41 11 2
41 12 4
41 13 5
41 14 1
41 15 3
41 16 1
41 17 5
41 18 2
41 19 5
41 20 3
41 21 4
41 22 2
41 23 3
41 24 5
41 25 3
41 26 3
41 27 5
41 28 2
41 29 1
41 30 3
41 31 5
41 32 2
41 33 4
41 34 1
41 35 2
41 36 4
41 37 1
41 38 2
41 39 3
41 40 3
42 0 5
42 1 4
42 2 5
42 3 2
42 4 4
42 5 1
42 6 1
42 7 3
42 8 4
42 9 4
42 10 2
42 11 1
42 12 3
42 13 5
42 14 4
42 15 4
42 16 4
42 17 3
42 18 1
42 19 2
42 20 3
42 21 5
42 22 1
42 23 1
42 24 5
42 25 4
42 26 4
42 27 3
42 28 5
42 29 5
42 30 4
42 31 3
42 32 4
42 33 5
42 34 4
42 35 3
42 36 4
42 37 5
42 38 1
42 39 3
42 40 2
42 41 4
43 0 4
43 1 3
43 2 3
43 3 2
43 4 1
43 5 1
43 6 3
43 7 3
43 8 1
43 9 4
43 10 5
43 11 3
43 12 3
43 13 5
43 14 3
43 15 5
43 16 4
43 17 1
43 18 4
43 19 5
43 20 5
43 21 1
43 22 3
43 23 5
43 24 3
43 25 5
43 26 1
43 27 5
43 28 1
43 29 4
43 30 5
43 31 4
43 32 3
43 33 5
43 34 2
43 35 4
43 36 3
43 37 5
43 38 3
43 39 1
43 40 3
43 41 5
43 42 5
44 0 5
44 1 3
44 2 4
44 3 5
44 4 2
44 5 3
44 6 4
44 7 5
44 8 3
44 9 2
44 10 3
44 11 4
44 12 2
44 13 5
44 14 1
44 15 1
44 16 5
44 17 3
44 18 5
44 19 2
44 20 4
44 21 5
44 22 5
44 23 4
44 24 3
44 25 3
44 26 2
44 27 1
44 28 4
44 29 4
44 30 3
44 31 2
44 32 5
44 33 4
44 34 4
44 35 1
44 36 5
44 37 5
44 38 1
44 39 2
44 40 5
44 41 3
44 42 2
44 43 1
45 0 2
45 1 3
45 2 4
45 3 3
45 4 5
45 5 5
45 6 2
45 7 3
45 8 2
45 9 3
45 10 5
45 11 4
45 12 4
45 13 3
45 14 3
45 15 5
45 16 5
45 17 5
45 18 3
45 19 3
45 20 1
45 21 1
45 22 1
45 23 1
45 24 3
45 25 2
45 26 2
45 27 2
45 28 1
45 29 5
45 30 3
45 31 1
45 32 5
45 33 4
45 34 1
45 35 5
45 36 2
45 37 2
45 38 3
45 39 5
45 40 3
45 41 2
45 42 2
45 43 2
45 44 4
46 0 3
46 1 4
46 2 3
46 3 2
46 4 1
46 5 5
46 6 3
46 7 2
46 8 3
46 9 3
46 10 1
46 11 2
46 12 1
46 13 3
46 14 3
46 15 2
46 16 4
46 17 3
46 18 2
46 19 5
46 20 3
46 21 2
46 22 5
46 23 2
46 24 1
46 25 3
46 26 2
46 27 4
46 28 4
46 29 4
46 30 1
46 31 2
46 32 2
46 33 1
46 34 1
46 35 5
46 36 2
46 37 2
46 38 2
46 39 2
46 40 4
46 41 4
46 42 4
46 43 3
46 44 1
46 45 1
47 0 5
47 1 2
47 2 3
47 3 2
47 4 5
47 5 2
47 6 1
47 7 1
47 8 1
47 9 2
47 10 4
47 11 1
47 12 3
47 13 4
47 14 4
47 15 3
47 16 2
47 17 4
47 18 2
47 19 3
47 20 1
47 21 1
47 22 1
47 23 5
47 24 4
47 25 4
47 26 4
47 27 2
47 28 3
47 29 5
47 30 2
47 31 4
47 32 5
47 33 1
47 34 1
47 35 1
47 36 1
47 37 4
47 38 1
47 39 3
47 40 5
47 41 5
47 42 1
47 43 5
47 44 3
47 45 5
47 46 5
48 0 4
48 1 5
48 2 5
48 3 3
48 4 1
48 5 3
48 6 1
48 7 1
48 8 2
48 9 3
48 10 2
48 11 1
48 12 1
48 13 4
48 14 1
48 15 3
48 16 2
48 17 5
48 18 4
48 19 2
48 20 2
48 21 5
48 22 1
48 23 4
48 24 2
48 25 2
48 26 4
48 27 5
48 28 1
48 29 2
48 30 4
48 31 3
48 32 4
48 33 2
48 34 2
48 35 4
48 36 4
48 37 2
48 38 4
48 39 4
48 40 5
48 41 1
48 42 2
48 43 1
48 44 2
48 45 3
48 46 4
48 47 3
49 0 5
49 1 2
49 2 4
49 3 3
49 4 2
49 5 2
49 6 4
49 7 2
49 8 2
49 9 1
49 10 1
49 11 4
49 12 1
49 13 2
49 14 2
49 15 1
49 16 1
49 17 1
49 18 5
49 19 5
49 20 5
49 21 3
49 22 4
49 23 5
49 24 4
49 25 3
49 26 5
49 27 1
49 28 3
49 29 1
49 30 3
49 31 3
49 32 4
49 33 2
49 34 1
49 35 1
49 36 2
49 37 1
49 38 5
49 39 4
49 40 5
49 41 2
49 42 2
49 43 5
49 44 5
49 45 4
49 46 5
49 47 5
49 48 5
50 0 1
50 1 5
50 2 1
50 3 5
50 4 4
50 5 2
50 6 3
50 7 3
50 8 3
50 9 4
50 10 2
50 11 1
50 12 1
50 13 5
50 14 3
50 15 1
50 16 5
50 17 3
50 18 4
50 19 3
50 20 1
50 21 5
50 22 1
50 23 2
50 24 5
50 25 4
50 26 5
50 27 2
50 28 3
50 29 5
50 30 5
50 31 5
50 32 2
50 33 2
50 34 4
50 35 1
50 36 1
50 37 2
50 38 3
50 39 3
50 40 3
50 41 2
50 42 1
50 43 5
50 44 5
50 45 3
50 46 4
50 47 5
50 48 2
50 49 5
51 0 3
51 1 1
51 2 5
51 3 2
51 4 4
51 5 5
51 6 4
51 7 3
51 8 3
51 9 5
51 10 2
51 11 2
51 12 1
51 13 2
51 14 3
51 15 2
51 16 1
51 17 1
51 18 3
51 19 5
51 20 5
51 21 5
51 22 3
51 23 3
51 24 2
51 25 3
51 26 5
51 27 3
51 28 1
51 29 1
51 30 4
51 31 4
51 32 1
51 33 1
51 34 2
51 35 1
51 36 1
51 37 2
51 38 5
51 39 4
51 40 2
51 41 5
51 42 4
51 43 5
51 44 5
51 45 1
51 46 1
51 47 1
51 48 1
51 49 1
51 50 2
52 0 2
52 1 1
52 2 5
52 3 5
52 4 5
52 5 1
52 6 1
52 7 3
52 8 1
52 9 4
52 10 4
52 11 3
52 12 1
52 13 3
52 14 4
52 15 4
52 16 4
52 17 2
52 18 3
52 19 1
52 20 2
52 21 4
52 22 4
52 23 5
52 24 2
52 25 1
52 26 5
52 27 4
52 28 3
52 29 5
52 30 1
52 31 3
52 32 5
52 33 5
52 34 5
52 35 2
52 36 1
52 37 4
52 38 2
52 39 5
52 40 3
52 41 5
52 42 3
52 43 1
52 44 1
52 45 2
52 46 2
52 47 3
52 48 2
52 49 1
52 50 3
52 51 3
53 0 5
53 1 3
53 2 4
53 3 2
53 4 5
53 5 1
53 6 3
53 7 2
53 8 3
53 9 5
53 10 1
53 11 4
53 12 1
53 13 5
53 14 2
53 15 5
53 16 5
53 17 2
53 18 5
53 19 3
53 20 3
53 21 1
53 22 3
53 23 2
53 24 1
53 25 1
53 26 4
53 27 5
53 28 4
53 29 1
53 30 1
53 31 4
53 32 4
53 33 5
53 34 4
53 35 3
53 36 5
53 37 3
53 38 5
53 39 2
53 40 1
53 41 5
53 42 3
53 43 2
53 44 5
53 45 4
53 46 3
53 47 5
53 48 1
53 49 3
53 50 1
53 51 1
53 52 1
54 0 5
54 1 1
54 2 2
54 3 4
54 4 4
54 5 2
54 6 5
54 7 2
54 8 2
54 9 4
54 10 1
54 11 2
54 12 4
54 13 3
54 14 2
54 15 3
54 16 1
54 17 5
54 18 5
54 19 1
54 20 2
54 21 1
54 22 3
54 23 2
54 24 2
54 25 5
54 26 2
54 27 2
54 28 1
54 29 1
54 30 3
54 31 3
54 32 2
54 33 4
54 34 4
54 35 2
54 36 1
54 37 1
54 38 1
54 39 3
54 40 2
54 41 3
54 42 3
54 43 4
54 44 3
54 45 3
54 46 4
54 47 5
54 48 1
54 49 5
54 50 4
54 51 1
54 52 4
54 53 1
55 0 3
55 1 5
55 2 5
55 3 2
55 4 4
55 5 1
55 6 3
55 7 2
55 8 5
55 9 5
55 10 5
55 11 2
55 12 3
55 13 5
55 14 3
55 15 5
55 16 2
55 17 4
55 18 4
55 19 3
55 20 1
55 21 1
55 22 2
55 23 3
55 24 4
55 25 4
55 26 3
55 27 2
55 28 2
55 29 5
55 30 3
55 31 3
55 32 5
55 33 2
55 34 3
55 35 4
55 36 5
55 37 5
55 38 1
55 39 5
55 40 1
55 41 4
55 42 4
55 43 1
55 44 3
55 45 2
55 46 5
55 47 4
55 48 1
55 49 5
55 50 5
55 51 2
55 52 4
55 53 2
55 54 4
56 0 5
56 1 1
56 2 2
56 3 2
56 4 2
56 5 4
56 6 4
56 7 3
56 8 4
56 9 3
56 10 4
56 11 1
56 12 3
56 13 1
56 14 4
56 15 2
56 16 3
56 17 4
56 18 2
56 19 1
56 20 3
56 21 4
56 22 2
56 23 3
56 24 2
56 25 2
56 26 3
56 27 1
56 28 2
56 29 3
56 30 5
56 31 2
56 32 5
56 33 1
56 34 5
56 35 2
56 36 5
56 37 5
56 38 2
56 39 5
56 40 1
56 41 5
56 42 4
56 43 2
56 44 1
56 45 4
56 46 5
56 47 4
56 48 3
56 49 4
56 50 1
56 51 2
56 52 2
56 53 3
56 54 1
56 55 2
57 0 5
57 1 4
57 2 5
57 3 2
57 4 4
57 5 3
57 6 2
57 7 5
57 8 4
57 9 3
57 10 2
57 11 1
57 12 1
57 13 5
57 14 4
57 15 4
57 16 5
57 17 3
57 18 4
57 19 3
57 20 1
57 21 2
57 22 3
57 23 4
57 24 5
57 25 2
57 26 2
57 27 2
57 28 1
57 29 2
57 30 5
57 31 2
57 32 5
57 33 4
57 34 2
57 35 4
57 36 5
57 37 3
57 38 3
57 39 4
57 40 1
57 41 3
57 42 1
57 43 1
57 44 1
57 45 4
57 46 5
57 47 5
57 48 2
57 49 2
57 50 2
57 51 1
57 52 5
57 53 1
57 54 1
57 55 4
57 56 5
58 0 1
58 1 5
58 2 3
58 3 4
58 4 1
58 5 2
58 6 3
58 7 4
58 8 1
58 9 5
58 10 3
58 11 1
58 12 2
58 13 3
58 14 4
58 15 1
58 16 5
58 17 5
58 18 5
58 19 1
58 20 1
58 21 1
58 22 4
58 23 5
58 24 1
58 25 2
58 26 3
58 27 2
58 28 3
58 29 1
58 30 3
58 31 1
58 32 2
58 33 5
58 34 5
58 35 3
58 36 2
58 37 5
58 38 2
58 39 3
58 40 2
58 41 4
58 42 3
58 43 2
58 44 3
58 45 4
58 46 5
58 47 4
58 48 4
58 49 5
58 50 2
58 51 1
58 52 3
58 53 2
58 54 1
58 55 2
58 56 4
58 57 5
59 0 1
59 1 1
59 2 1
59 3 3
59 4 4
59 5 4
59 6 5
59 7 1
59 8 3
59 9 4
59 10 4
59 11 2
59 12 5
59 13 1
59 14 2
59 15 5
59 16 1
59 17 3
59 18 2
59 19 4
59 20 2
59 21 4
59 22 4
59 23 2
59 24 4
59 25 3
59 26 1
59 27 4
59 28 3
59 29 1
59 30 5
59 31 2
59 32 3
59 33 3
59 34 3
59 35 2
59 36 4
59 37 2
59 38 3
59 39 5
59 40 5
59 41 2
59 42 5
59 43 2
59 44 3
59 45 5
59 46 3
59 47 2
59 48 3
59 49 5
59 50 3
59 51 5
59 52 1
59 53 2
59 54 1
59 55 2
59 56 1
59 57 3
59 58 2
60 0 4
60 1 5
60 2 4
60 3 2
60 4 3
60 5 4
60 6 5
60 7 3
60 8 2
60 9 4
60 10 2
60 11 4
60 12 2
60 13 5
60 14 5
60 15 4
60 16 1
60 17 5
60 18 1
60 19 3
60 20 4
60 21 4
60 22 5
60 23 4
60 24 2
60 25 5
60 26 2
60 27 4
60 28 4
60 29 4
60 30 2
60 31 4
60 32 5
60 33 2
60 34 2
60 35 1
60 36 1
60 37 4
60 38 2
60 39 2
60 40 3
60 41 1
60 42 3
60 43 4
60 44 4
60 45 5
60 46 2
60 47 2
60 48 2
60 49 4
60 50 5
60 51 1
60 52 4
60 53 1
60 54 3
60 55 3
60 56 5
60 57 2
60 58 1
60 59 3
61 0 1
61 1 1
61 2 3
61 3 2
61 4 2
61 5 3
61 6 3
61 7 5
61 8 4
61 9 2
61 10 5
61 11 2
61 12 3
61 13 4
61 14 5
61 15 5
61 16 5
61 17 5
61 18 1
61 19 4
61 20 5
61 21 2
61 22 2
61 23 1
61 24 5
61 25 1
61 26 5
61 27 4
61 28 1
61 29 3
61 30 2
61 31 4
61 32 5
61 33 1
61 34 1
61 35 1
61 36 4
61 37 4
61 38 3
61 39 2
61 40 2
61 41 1
61 42 5
61 43 3
61 44 5
61 45 1
61 46 1
61 47 3
61 48 5
61 49 1
61 50 5
61 51 2
61 52 4
61 53 2
61 54 3
61 55 5
61 56 2
61 57 3
61 58 1
61 59 2
61 60 3
62 0 1
62 1 1
62 2 1
62 3 4
62 4 4
62 5 4
62 6 4
62 7 2
62 8 1
62 9 2
62 10 3
62 11 5
62 12 5
62 13 5
62 14 1
62 15 2
62 16 3
62 17 3
62 18 2
62 19 4
62 20 1
62 21 4
62 22 5
62 23 4
62 24 1
62 25 5
62 26 5
62 27 1
62 28 2
62 29 3
62 30 2
62 31 5
62 32 1
62 33 5
62 34 5
62 35 1
62 36 1
62 37 2
62 38 1
62 39 5
62 40 4
62 41 1
62 42 4
62 43 5
62 44 3
62 45 3
62 46 4
62 47 3
62 48 4
62 49 4
62 50 4
62 51 5
62 52 1
62 53 2
62 54 1
62 55 5
62 56 4
62 57 3
62 58 1
62 59 5
62 60 4
62 61 2
63 0 1
63 1 4
63 2 3
63 3 3
63 4 3
63 5 5
63 6 4
63 7 1
63 8 2
63 9 4
63 10 3
63 11 2
63 12 5
63 13 1
63 14 5
63 15 1
63 16 3
63 17 4
63 18 3
63 19 4
63 20 3
63 21 3
63 22 2
63 23 4
63 24 3
63 25 3
63 26 3
63 27 1
63 28 1
63 29 5
63 30 1
63 31 1
63 32 3
63 33 3
63 34 2
63 35 3
63 36 3
63 37 5
63 38 3
63 39 4
63 40 5
63 41 3
63 42 3
63 43 2
63 44 3
63 45 3
63 46 2
63 47 2
63 48 5
63 49 4
63 50 2
63 51 4
63 52 1
63 53 4
63 54 1
63 55 1
63 56 5
63 57 3
63 58 4
63 59 4
63 60 2
63 61 3
63 62 1
64 0 1
64 1 3
64 2 5
64 3 4
64 4 5
64 5 1
64 6 2
64 7 1
64 8 2
64 9 4
64 10 3
64 11 3
64 12 5
64 13 4
64 14 4
64 15 2
64 16 5
64 17 3
64 18 4
64 19 5
64 20 5
64 21 1
64 22 4
64 23 2
64 24 5
64 25 1
64 26 5
64 27 4
64 28 3
64 29 5
64 30 4
64 31 3
64 32 2
64 33 1
64 34 5
64 35 4
64 36 1
64 37 3
64 38 5
64 39 1
64 40 2
64 41 4
64 42 2
64 43 1
64 44 5
64 45 1
64 46 3
64 47 5
64 48 4
64 49 1
64 50 5
64 51 3
64 52 4
64 53 2
64 54 2
64 55 2
64 56 5
64 57 4
64 58 5
64 59 1
64 60 4
64 61 1
64 62 1
64 63 5
65 0 2
65 1 2
65 2 5
65 3 1
65 4 5
65 5 5
65 6 3
65 7 5
65 8 1
65 9 5
65 10 2
65 11 4
65 12 4
65 13 3
65 14 3
65 15 1
65 16 5
65 17 4
65 18 3
65 19 5
65 20 4
65 21 5
65 22 2
65 23 2
65 24 2
65 25 1
65 26 5
65 27 4
65 28 2
65 29 1
65 30 2
65 31 2
65 32 1
65 33 2
65 34 2
65 35 3
65 36 2
65 37 3
65 38 4
65 39 2
65 40 5
65 41 4
65 42 4
65 43 4
65 44 1
65 45 2
65 46 2
65 47 3
65 48 4
65 49 4
65 50 1
65 51 4
65 52 4
65 53 2
65 54 2
65 55 5
65 56 2
65 57 2
65 58 4
65 59 5
65 60 1
65 61 4
65 62 3
65 63 4
65 64 1
66 0 3
66 1 4
66 2 5
66 3 3
66 4 5
66 5 5
66 6 3
66 7 4
66 8 4
66 9 5
66 10 5
66 11 4
66 12 4
66 13 3
66 14 5
66 15 1
66 16 1
66 17 3
66 18 2
66 19 3
66 20 1
66 21 3
66 22 1
66 23 3
66 24 2
66 25 3
66 26 2
66 27 1
66 28 4
66 29 5
66 30 4
66 31 5
66 32 3
66 33 5
66 34 2
66 35 3
66 36 5
66 37 3
66 38 4
66 39 3
66 40 1
66 41 3
66 42 3
66 43 2
66 44 5
66 45 3
66 46 4
66 47 1
66 48 1
66 49 5
66 50 3
66 51 2
66 52 4
66 53 3
66 54 5
66 55 2
66 56 1
66 57 2
66 58 5
66 59 2
66 60 5
66 61 2
66 62 3
66 63 5
66 64 3
66 65 2
67 0 2
67 1 2
67 2 5
67 3 1
67 4 2
67 5 3
67 6 1
67 7 5
67 8 5
67 9 3
67 10 4
67 11 3
67 12 5
67 13 5
67 14 2
67 15 4
67 16 2
67 17 4
67 18 4
67 19 2
67 20 5
67 21 2
67 22 4
67 23 2
67 24 3
67 25 3
67 26 4
67 27 2
67 28 2
67 29 3
67 30 5
67 31 5
67 32 5
67 33 2
67 34 5
67 35 5
67 36 2
67 37 5
67 38 3
67 39 4
67 40 3
67 41 5
67 42 2
67 43 4
67 44 3
67 45 3
67 46 5
67 47 2
67 48 4
67 49 2
67 50 2
67 51 2
67 52 2
67 53 3
67 54 5
67 55 1
67 56 2
67 57 2
67 58 4
67 59 3
67 60 1
67 61 2
67 62 1
67 63 2
67 64 1
67 65 5
67 66 1
68 0 2
68 1 4
68 2 2
68 3 1
68 4 5
68 5 2
68 6 3
68 7 2
68 8 1
68 9 3
68 10 3
68 11 5
68 12 2
68 13 3
68 14 3
68 15 2
68 16 2
68 17 5
68 18 1
68 19 5
68 20 5
68 21 4
68 22 5
68 23 4
68 24 2
68 25 3
68 26 5
68 27 1
68 28 4
68 29 3
68 30 4
68 31 2
68 32 5
68 33 1
68 34 1
68 35 1
68 36 1
68 37 4
68 38 2
68 39 2
68 40 3
68 41 1
68 42 1
68 43 1
68 44 5
68 45 5
68 46 1
68 47 4
68 48 5
68 49 4
68 50 4
68 51 3
68 52 2
68 53 1
68 54 3
68 55 4
68 56 4
68 57 4
68 58 5
68 59 4
68 60 2
68 61 2
68 62 3
68 63 5
68 64 2
68 65 4
68 66 5
68 67 1
69 0 1
69 1 3
69 2 4
69 3 1
69 4 2
69 5 4
69 6 4
69 7 4
69 8 3
69 9 1
69 10 4
69 11 3
69 12 1
69 13 2
69 14 3
69 15 4
69 16 4
69 17 2
69 18 2
69 19 5
69 20 4
69 21 2
69 22 4
69 23 4
69 24 1
69 25 3
69 26 4
69 27 5
69 28 4
69 29 2
69 30 1
69 31 3
69 32 3
69 33 1
69 34 3
69 35 5
69 36 3
69 37 1
69 38 3
69 39 4
69 40 5
69 41 3
69 42 2
69 43 1
69 44 3
69 45 2
69 46 1
69 47 2
69 48 5
69 49 2
69 50 1
69 51 5
69 52 1
69 53 4
69 54 5
69 55 5
69 56 4
69 57 1
69 58 3
69 59 1
69 60 1
69 61 5
69 62 2
69 63 4
69 64 5
69 65 3
69 66 1
69 67 4
69 68 3
